(define-fun e0 () (_ BitVec 1) (_ bv0 1))
(declare-fun c1 () (_ BitVec 1))
(define-fun e2 () Bool (= e0 c1))
(define-fun e3 () (_ BitVec 48) (_ bv0 48))
(declare-fun c4 () (_ BitVec 48))
(define-fun e5 () Bool (= e3 c4))
(declare-fun c6 () (_ BitVec 48))
(define-fun e7 () Bool (= e3 c6))
(declare-fun c8 () (_ BitVec 48))
(define-fun e9 () Bool (= e3 c8))
(declare-fun c10 () (_ BitVec 48))
(define-fun e11 () Bool (= e3 c10))
(declare-fun c12 () (_ BitVec 16))
(define-fun e13 () (_ BitVec 18) ((_ zero_extend 2) c12))
(define-fun e14 () (_ BitVec 18) (_ bv65536 18))
(define-fun e15 () Bool (bvult e13 e14))
(define-fun e16 () Bool (and e11 e15))
(define-fun e17 () Bool (and e9 e16))
(define-fun e18 () Bool (and e7 e17))
(define-fun e19 () Bool (and e5 e18))
(define-fun e20 () Bool (and e2 e19))
(assert e20)
(declare-fun c21 () (_ BitVec 16))
(define-fun e22 () (_ BitVec 16) (bvmul c21 c12))
(define-fun e23 () (_ BitVec 30) (_ bv1 30))
(define-fun e24 () (_ BitVec 48) (concat e23 e13))
(define-fun e25 () (_ BitVec 3) (_ bv0 3))
(define-fun e26 () (_ BitVec 27) (bvneg (_ bv1 27)))
(define-fun e27 () (_ BitVec 27) ((_ zero_extend 11) c21))
(define-fun e28 () (_ BitVec 27) (bvadd e26 e27))
(define-fun e29 () (_ BitVec 1) ((_ extract 17 17) e28))
(define-fun e30 () (_ BitVec 1) (bvnot e29))
(define-fun e31 () (_ BitVec 44) (bvneg (_ bv5864062014806 44)))
(define-fun e32 () (_ BitVec 18) ((_ extract 17 0) e28))
(define-fun e33 () (_ BitVec 19) (concat e29 e32))
(define-fun e34 () (_ BitVec 20) (concat e29 e33))
(define-fun e35 () (_ BitVec 21) (concat e29 e34))
(define-fun e36 () (_ BitVec 22) (concat e29 e35))
(define-fun e37 () (_ BitVec 23) (concat e29 e36))
(define-fun e38 () (_ BitVec 24) (concat e29 e37))
(define-fun e39 () (_ BitVec 25) (concat e29 e38))
(define-fun e40 () (_ BitVec 26) (concat e29 e39))
(define-fun e41 () (_ BitVec 27) (concat e29 e40))
(define-fun e42 () (_ BitVec 28) (concat e29 e41))
(define-fun e43 () (_ BitVec 29) (concat e29 e42))
(define-fun e44 () (_ BitVec 30) (concat e29 e43))
(define-fun e45 () (_ BitVec 31) (concat e29 e44))
(define-fun e46 () (_ BitVec 32) (concat e29 e45))
(define-fun e47 () (_ BitVec 33) (concat e29 e46))
(define-fun e48 () (_ BitVec 34) (concat e29 e47))
(define-fun e49 () (_ BitVec 35) (concat e29 e48))
(define-fun e50 () (_ BitVec 36) (concat e29 e49))
(define-fun e51 () (_ BitVec 37) (concat e29 e50))
(define-fun e52 () (_ BitVec 38) (concat e29 e51))
(define-fun e53 () (_ BitVec 39) (concat e29 e52))
(define-fun e54 () (_ BitVec 40) (concat e29 e53))
(define-fun e55 () (_ BitVec 41) (concat e29 e54))
(define-fun e56 () (_ BitVec 42) (concat e29 e55))
(define-fun e57 () (_ BitVec 43) (concat e29 e56))
(define-fun e58 () (_ BitVec 44) (concat e29 e57))
(define-fun e59 () (_ BitVec 44) (bvand e31 e58))
(define-fun e60 () (_ BitVec 45) (concat e30 e59))
(define-fun e61 () (_ BitVec 48) (concat e25 e60))
(define-fun e62 () (_ BitVec 48) (bvxor e24 e61))
(define-fun e63 () (_ BitVec 48) (bvand e24 e61))
(define-fun e64 () (_ BitVec 11) ((_ extract 46 36) e63))
(define-fun e65 () (_ BitVec 1) ((_ extract 35 35) e63))
(define-fun e66 () (_ BitVec 11) ((_ extract 34 24) e63))
(define-fun e67 () (_ BitVec 1) ((_ extract 23 23) e63))
(define-fun e68 () (_ BitVec 11) ((_ extract 22 12) e63))
(define-fun e69 () (_ BitVec 1) ((_ extract 11 11) e63))
(define-fun e70 () (_ BitVec 11) ((_ extract 10 0) e63))
(define-fun e71 () (_ BitVec 12) (concat e70 e0))
(define-fun e72 () (_ BitVec 13) (concat e69 e71))
(define-fun e73 () (_ BitVec 24) (concat e68 e72))
(define-fun e74 () (_ BitVec 25) (concat e67 e73))
(define-fun e75 () (_ BitVec 36) (concat e66 e74))
(define-fun e76 () (_ BitVec 37) (concat e65 e75))
(define-fun e77 () (_ BitVec 48) (concat e64 e76))
(define-fun e78 () (_ BitVec 48) (bvand e62 e77))
(define-fun e79 () (_ BitVec 48) (bvneg (_ bv201370283 48)))
(define-fun e80 () (_ BitVec 48) (bvand e79 e77))
(define-fun e81 () (_ BitVec 48) (bvor e78 e80))
(define-fun e82 () (_ BitVec 48) (bvand e79 e62))
(define-fun e83 () (_ BitVec 48) (bvor e81 e82))
(define-fun e84 () (_ BitVec 13) ((_ extract 47 35) e83))
(define-fun e85 () (_ BitVec 14) ((_ zero_extend 1) e84))
(define-fun e86 () (_ BitVec 1) ((_ extract 47 47) e63))
(define-fun e87 () (_ BitVec 48) (bvxor e62 e77))
(define-fun e88 () (_ BitVec 48) (bvxor e79 e87))
(define-fun e89 () (_ BitVec 12) ((_ extract 47 36) e88))
(define-fun e90 () (_ BitVec 13) (concat e86 e89))
(define-fun e91 () (_ BitVec 14) ((_ zero_extend 1) e90))
(define-fun e92 () (_ BitVec 14) (bvadd e85 e91))
(define-fun e93 () (_ BitVec 12) ((_ extract 34 23) e83))
(define-fun e94 () (_ BitVec 13) ((_ zero_extend 1) e93))
(define-fun e95 () (_ BitVec 12) ((_ extract 35 24) e88))
(define-fun e96 () (_ BitVec 13) ((_ zero_extend 1) e95))
(define-fun e97 () (_ BitVec 13) (bvadd e94 e96))
(define-fun e98 () (_ BitVec 12) ((_ extract 22 11) e83))
(define-fun e99 () (_ BitVec 13) ((_ zero_extend 1) e98))
(define-fun e100 () (_ BitVec 12) ((_ extract 23 12) e88))
(define-fun e101 () (_ BitVec 13) ((_ zero_extend 1) e100))
(define-fun e102 () (_ BitVec 13) (bvadd e99 e101))
(define-fun e103 () (_ BitVec 11) ((_ extract 10 0) e83))
(define-fun e104 () (_ BitVec 12) (concat e103 e0))
(define-fun e105 () (_ BitVec 13) ((_ zero_extend 1) e104))
(define-fun e106 () (_ BitVec 12) ((_ extract 11 0) e88))
(define-fun e107 () (_ BitVec 13) ((_ zero_extend 1) e106))
(define-fun e108 () (_ BitVec 13) (bvadd e105 e107))
(define-fun e109 () (_ BitVec 1) ((_ extract 12 12) e108))
(define-fun e110 () (_ BitVec 13) ((_ zero_extend 12) e109))
(define-fun e111 () (_ BitVec 13) (bvadd e102 e110))
(define-fun e112 () (_ BitVec 1) ((_ extract 12 12) e111))
(define-fun e113 () (_ BitVec 13) ((_ zero_extend 12) e112))
(define-fun e114 () (_ BitVec 13) (bvadd e97 e113))
(define-fun e115 () (_ BitVec 1) ((_ extract 12 12) e114))
(define-fun e116 () (_ BitVec 14) ((_ zero_extend 13) e115))
(define-fun e117 () (_ BitVec 14) (bvadd e92 e116))
(define-fun e118 () (_ BitVec 12) ((_ extract 11 0) e117))
(define-fun e119 () (_ BitVec 12) ((_ extract 11 0) e114))
(define-fun e120 () (_ BitVec 12) ((_ extract 11 0) e111))
(define-fun e121 () (_ BitVec 12) ((_ extract 11 0) e108))
(define-fun e122 () (_ BitVec 24) (concat e120 e121))
(define-fun e123 () (_ BitVec 36) (concat e119 e122))
(define-fun e124 () (_ BitVec 48) (concat e118 e123))
(define-fun e125 () (_ BitVec 48) (bvnot e124))
(define-fun e126 () (_ BitVec 16) ((_ extract 15 0) e125))
(define-fun e127 () Bool (= e22 e126))
(define-fun e128 () Bool (not e127))
(assert e128)
(check-sat)
(get-model)
